
Gurobi 11.0.3 (linux64) logging started Wed Apr 15 09:48:48 2026

Set parameter LogFile to value "tree/results/dmtl/dmtl_depth-2_run-1/Full MIP/LogFile_FullModel.txt"
Gurobi Optimizer version 11.0.3 build v11.0.3rc0 (linux64 - "CentOS Linux 7 (Core)")

CPU model: Intel(R) Xeon(R) Platinum 8260 CPU @ 2.40GHz, instruction set [SSE2|AVX|AVX2|AVX512]
Thread count: 96 physical cores, 192 logical processors, using up to 32 threads

Optimize a model with 7965 rows, 6778 columns and 237315 nonzeros
Model fingerprint: 0x8f62b315
Model has 1072 general constraints
Variable types: 3436 continuous, 3342 integer (3342 binary)
Coefficient statistics:
  Matrix range     [2e-03, 1e+04]
  Objective range  [4e-03, 1e+04]
  Bounds range     [1e+00, 6e+02]
  RHS range        [1e-04, 1e+03]

User MIP start produced solution with objective 0.679104 (0.04s)
Loaded user MIP start with objective 0.679104

Presolve added 1068 rows and 2143 columns
Presolve time: 0.18s
Presolved: 9033 rows, 8921 columns, 241708 nonzeros
Presolved model has 2144 SOS constraint(s)
Variable types: 3435 continuous, 5486 integer (5486 binary)

Root simplex log...

Iteration    Objective       Primal Inf.    Dual Inf.      Time
    6240    9.0199996e-01   2.352463e+03   0.000000e+00      5s
    8646    1.0000000e+00   0.000000e+00   0.000000e+00      8s

Root relaxation: objective 1.000000e+00, 8646 iterations, 7.20 seconds (10.11 work units)
Total elapsed time = 17.96s (DegenMoves)
Total elapsed time = 24.87s (DegenMoves)
Total elapsed time = 26.98s (DegenMoves)

    Nodes    |    Current Node    |     Objective Bounds      |     Work
 Expl Unexpl |  Obj  Depth IntInf | Incumbent    BestBd   Gap | It/Node Time

     0     0    1.00000    0  847    0.67910    1.00000  47.3%     -   29s
     0     2    1.00000    0  852    0.67910    1.00000  47.3%     -   47s
     1     4    1.00000    1  924    0.67910    1.00000  47.3%  7776   54s
     3     8    1.00000    2  912    0.67910    1.00000  47.3%  5427   60s
     7    16    1.00000    3  901    0.67910    1.00000  47.3%  4597   67s
    15    32    1.00000    4  886    0.67910    1.00000  47.3%  3697   75s
    31    64    1.00000    5  886    0.67910    1.00000  47.3%  3523   83s
    63    96    1.00000    6  892    0.67910    1.00000  47.3%  1798   99s
    95   128    1.00000    6  886    0.67910    1.00000  47.3%  1208  129s
H  100   128                       0.6828358    1.00000  46.4%  1149  129s
H  100   128                       0.6865672    1.00000  45.7%  1149  129s
H  109   128                       0.6940299    1.00000  44.1%  1077  129s
   127   160    1.00000    7  898    0.69403    1.00000  44.1%   951  131s
   159   192    1.00000    7  886    0.69403    1.00000  44.1%   797  209s
H  160   192                       0.7014925    1.00000  42.6%   792  209s
H  167   192                       0.7089552    1.00000  41.1%   760  209s
H  170   192                       0.7126866    1.00000  40.3%   764  209s
H  177   192                       0.7201493    1.00000  38.9%   745  209s
   191   226    1.00000    8  901    0.72015    1.00000  38.9%   695  214s
   225   349    1.00000    8  899    0.72015    1.00000  38.9%   604  279s
   348  1168    1.00000    9  897    0.72015    1.00000  38.9%   416  541s
H  868  1168                       0.7238806    1.00000  38.1%   236  541s
  1167  5321    1.00000   23  816    0.72388    1.00000  38.1%   211 1067s
  5320  8708    1.00000  102  684    0.72388    1.00000  38.1%   128 1208s
H 5543  8708                       0.7276119    1.00000  37.4%   124 1208s
  8713 13314    1.00000  217  590    0.72761    1.00000  37.4%  94.0 1399s
H 9127 13314                       0.7313433    1.00000  36.7%  90.5 1399s
 13462 19603    1.00000  370  457    0.73134    1.00000  36.7%  82.1 1816s
 20156 19604    1.00000  113  156    0.73134    1.00000  36.7%  79.5 1828s
 20158 19605    1.00000  180  124    0.73134    1.00000  36.7%  79.5 1843s
 20159 19606    1.00000   61  124    0.73134    1.00000  36.7%  79.5 1853s
 20160 19610    1.00000   15  998    0.73134    1.00000  36.7%  80.7 1866s
 20162 19613    1.00000   16 1045    0.73134    1.00000  36.7%  81.0 1870s
 20166 19620    1.00000   17  861    0.73134    1.00000  36.7%  81.9 1875s
 20174 19633    1.00000   18  782    0.73134    1.00000  36.7%  82.9 1880s
 20222 19681    1.00000   20  778    0.73134    1.00000  36.7%  85.7 1885s
 20254 19702    1.00000   20  778    0.73134    1.00000  36.7%  85.6 1907s
 20318 19745    1.00000   21  777    0.73134    1.00000  36.7%  85.8 1953s
 20350 19785    1.00000   22  776    0.73134    1.00000  36.7%  85.8 1965s
 20401 19800    1.00000   23  775    0.73134    1.00000  36.7%  91.5 2233s
 20433 19873    1.00000   23  775    0.73134    1.00000  36.7%  91.5 2259s
 20516 20173    1.00000   24  996    0.73134    1.00000  36.7%  96.7 2299s
 20844 21494    1.00000   25 1008    0.73134    1.00000  36.7%   113 2354s
 22274 22577    1.00000   52 1063    0.73134    1.00000  36.7%   129 2426s
 23834 24542    1.00000   53 1061    0.73134    1.00000  36.7%   125 3000s
 26319 31850    1.00000  171  929    0.73134    1.00000  36.7%   123 3108s
 34621 38451    1.00000  310  670    0.73134    1.00000  36.7%   116 3188s
 44047 36412    1.00000  476  504    0.73134    1.00000  36.7%  99.3 3217s
 45152 43002    1.00000  476  504    0.73134    1.00000  36.7%  98.5 3286s
 52279 41786    1.00000  647  402    0.73134    1.00000  36.7%  91.9 3402s
 53505 46317    0.98656  647  487    0.73134    1.00000  36.7%  90.9 3503s
 58602 46029    1.00000  675  659    0.73134    1.00000  36.7%  89.5 3600s

Explored 60013 nodes (5438490 simplex iterations) in 3600.22 seconds (8362.72 work units)
Thread count was 32 (of 192 available processors)

Solution count 10: 0.731343 0.727612 0.723881 ... 0.682836

Time limit reached
Best objective 7.313432835821e-01, best bound 1.000000000000e+00, gap 36.7347%

User-callback calls 2645652, time in user-callback 16.00 sec
